Test: fpga11_12_uns_rcr.cnf
Options: -no-inverting-opt -activity-look-freq=1
WARNING: for repeatability, setting FPU to use double precision
============================[ Problem Statistics ]=============================
|                                                                             |
|  Number of symmetries:           42                                         |
|  Number of invertingSyms:         0                                         |
|  Number of variables:           264                                         |
|  Number of clauses:            1476                                         |
|  Parse time:                   0.00 s                                       |
|                                                                             |
============================[ Search Statistics ]==============================
| Conflicts |          ORIGINAL         |          LEARNT          | Progress |
|           |    Vars  Clauses Literals |    Limit  Clauses Lit/Cl |          |
===============================================================================
|       100 |     264     1476     3168 |      541      115     50 |  0.001 % |
|       250 |     264     1476     3168 |      595      352     45 |  0.001 % |
|       475 |     264     1476     3168 |      654      530     38 |  0.001 % |
|       812 |     264     1476     3168 |      720      629     45 |  0.001 % |
|      1318 |     264     1476     3168 |      792      422     40 |  0.001 % |
|      2077 |     264     1476     3168 |      871      487     36 |  0.001 % |
|      3216 |     264     1476     3168 |      958      517     34 |  0.001 % |
|      4924 |     264     1476     3168 |     1054      739     41 |  0.001 % |
|      7486 |     264     1476     3168 |     1160      607     36 |  0.001 % |
|     11330 |     264     1476     3168 |     1276      744     32 |  0.001 % |
|     17096 |     264     1476     3168 |     1403     1104     31 |  0.001 % |
===============================================================================
restarts              : 63
conflicts             : 17645          (30212 /sec)
symconflicts          : 3048           (5219 /sec)
decisions             : 31180          (0.00 % random) (53387 /sec)
propagations          : 967540         (1656644 /sec)
sympropagations       : 15583          (26682 /sec)
conflict literals     : 776293         (5.54 % deleted)
literals     : 776293         (5.54 % deleted)

HEURISTIC USAGES
random                : 0           
activity w/ lookahead : 31180       
activity no lookahead : 0           
original sp           : 0           
sym count             : 0           

Memory used           : 6.00 MB
CPU time              : 0.584036 s

UNSATISFIABLE
